84
1 77 
1 64 
1 25 
5 16 94 4 21 18 
3 117 3 50 
1 84 
1 114 
1 25 
1 99 
2 14 47 
3 98 42 80 
1 45 
1 85 
1 48 
1 87 
1 88 
1 10 
3 12 7 23 
2 108 72 
3 119 103 43 
1 120 
1 32 
2 79 30 
1 44 
1 69 
1 26 
1 112 
2 53 20 
1 101 
2 83 61 
1 15 
1 52 
1 58 
2 24 73 
2 113 29 
1 63 
3 105 39 78 
1 28 
1 9 
1 97 
1 104 
1 48 
2 109 5 
1 67 
1 93 
2 111 56 
1 60 
2 31 17 
2 89 34 
1 95 
1 71 
1 35 
2 51 33 
1 106 
1 46 
1 6 
1 22 
1 41 
1 81 
2 76 110 
2 57 56 
3 90 57 54 
2 100 12 
1 55 
1 11 
2 100 49 
1 118 
2 59 74 
1 75 
1 116 
1 36 
2 66 86 
2 27 65 
1 37 
1 13 
1 82 
1 70 
1 115 
1 96 
1 38 
1 68 
1 19 
2 2 1 
1 107 
